certificates/rado_a11_c72_N36.cnf
c Rad2 upper bound instance: x1 + 11*x2 - x3 = 72, interval [1,36]
p cnf 36 232
1 6 7 0
-1 -6 -7 0
1 8 17 0
-1 -8 -17 0
1 9 28 0
-1 -9 -28 0
2 7 0
-2 -7 0
2 8 18 0
-2 -8 -18 0
2 9 29 0
-2 -9 -29 0
3 7 8 0
-3 -7 -8 0
3 8 19 0
-3 -8 -19 0
3 9 30 0
-3 -9 -30 0
4 7 9 0
-4 -7 -9 0
4 8 20 0
-4 -8 -20 0
4 9 31 0
-4 -9 -31 0
5 7 10 0
-5 -7 -10 0
5 8 21 0
-5 -8 -21 0
5 9 32 0
-5 -9 -32 0
6 7 11 0
-6 -7 -11 0
6 8 22 0
-6 -8 -22 0
6 9 33 0
-6 -9 -33 0
7 12 0
-7 -12 0
7 8 23 0
-7 -8 -23 0
7 9 34 0
-7 -9 -34 0
2 6 8 0
-2 -6 -8 0
7 8 13 0
-7 -8 -13 0
8 24 0
-8 -24 0
8 9 35 0
-8 -9 -35 0
3 6 9 0
-3 -6 -9 0
7 9 14 0
-7 -9 -14 0
8 9 25 0
-8 -9 -25 0
9 36 0
-9 -36 0
4 6 10 0
-4 -6 -10 0
7 10 15 0
-7 -10 -15 0
8 10 26 0
-8 -10 -26 0
5 6 11 0
-5 -6 -11 0
7 11 16 0
-7 -11 -16 0
8 11 27 0
-8 -11 -27 0
6 12 0
-6 -12 0
7 12 17 0
-7 -12 -17 0
8 12 28 0
-8 -12 -28 0
6 7 13 0
-6 -7 -13 0
7 13 18 0
-7 -13 -18 0
8 13 29 0
-8 -13 -29 0
6 8 14 0
-6 -8 -14 0
7 14 19 0
-7 -14 -19 0
8 14 30 0
-8 -14 -30 0
6 9 15 0
-6 -9 -15 0
7 15 20 0
-7 -15 -20 0
8 15 31 0
-8 -15 -31 0
6 10 16 0
-6 -10 -16 0
7 16 21 0
-7 -16 -21 0
8 16 32 0
-8 -16 -32 0
6 11 17 0
-6 -11 -17 0
7 17 22 0
-7 -17 -22 0
8 17 33 0
-8 -17 -33 0
1 5 18 0
-1 -5 -18 0
6 12 18 0
-6 -12 -18 0
7 18 23 0
-7 -18 -23 0
8 18 34 0
-8 -18 -34 0
2 5 19 0
-2 -5 -19 0
6 13 19 0
-6 -13 -19 0
7 19 24 0
-7 -19 -24 0
8 19 35 0
-8 -19 -35 0
3 5 20 0
-3 -5 -20 0
6 14 20 0
-6 -14 -20 0
7 20 25 0
-7 -20 -25 0
8 20 36 0
-8 -20 -36 0
4 5 21 0
-4 -5 -21 0
6 15 21 0
-6 -15 -21 0
7 21 26 0
-7 -21 -26 0
5 22 0
-5 -22 0
6 16 22 0
-6 -16 -22 0
7 22 27 0
-7 -22 -27 0
5 6 23 0
-5 -6 -23 0
6 17 23 0
-6 -17 -23 0
7 23 28 0
-7 -23 -28 0
5 7 24 0
-5 -7 -24 0
6 18 24 0
-6 -18 -24 0
7 24 29 0
-7 -24 -29 0
5 8 25 0
-5 -8 -25 0
6 19 25 0
-6 -19 -25 0
7 25 30 0
-7 -25 -30 0
5 9 26 0
-5 -9 -26 0
6 20 26 0
-6 -20 -26 0
7 26 31 0
-7 -26 -31 0
5 10 27 0
-5 -10 -27 0
6 21 27 0
-6 -21 -27 0
7 27 32 0
-7 -27 -32 0
5 11 28 0
-5 -11 -28 0
6 22 28 0
-6 -22 -28 0
7 28 33 0
-7 -28 -33 0
1 4 29 0
-1 -4 -29 0
5 12 29 0
-5 -12 -29 0
6 23 29 0
-6 -23 -29 0
7 29 34 0
-7 -29 -34 0
2 4 30 0
-2 -4 -30 0
5 13 30 0
-5 -13 -30 0
6 24 30 0
-6 -24 -30 0
7 30 35 0
-7 -30 -35 0
3 4 31 0
-3 -4 -31 0
5 14 31 0
-5 -14 -31 0
6 25 31 0
-6 -25 -31 0
7 31 36 0
-7 -31 -36 0
4 32 0
-4 -32 0
5 15 32 0
-5 -15 -32 0
6 26 32 0
-6 -26 -32 0
4 5 33 0
-4 -5 -33 0
5 16 33 0
-5 -16 -33 0
6 27 33 0
-6 -27 -33 0
4 6 34 0
-4 -6 -34 0
5 17 34 0
-5 -17 -34 0
6 28 34 0
-6 -28 -34 0
4 7 35 0
-4 -7 -35 0
5 18 35 0
-5 -18 -35 0
6 29 35 0
-6 -29 -35 0
4 8 36 0
-4 -8 -36 0
5 19 36 0
-5 -19 -36 0
6 30 36 0
-6 -30 -36 0
