certificates/rado_a11_c72_N36.drat
4 -36 0
7 -36 0
-36 0
9 0
-7 0
2 0
12 0
31 0
-29 0
-6 0
-4 0
34 0
24 0
23 0
1 0
11 0
13 0
30 0
35 0
10 0
32 0
8 0
0
